p cnf 10 50
7 -4 2 0
8 1 10 0
-10 1 -6 0
-7 -1 9 0
-3 -8 6 0
5 10 -9 0
-9 3 10 0
-5 10 6 0
4 -3 -8 0
-8 -10 2 0
-10 -1 -2 0
-10 3 -1 0
8 -1 -7 0
-4 -7 10 0
10 1 7 0
-3 -1 -8 0
-8 7 1 0
3 7 -1 0
8 -1 -2 0
-7 -5 9 0
8 3 6 0
6 5 -4 0
3 10 8 0
1 3 7 0
2 10 -3 0
5 -1 -7 0
-4 9 2 0
-10 -9 -3 0
5 4 2 0
-8 9 -1 0
9 -4 2 0
10 4 1 0
-5 -1 -9 0
8 -1 5 0
8 -10 -9 0
8 9 6 0
10 3 7 0
4 5 6 0
-2 -1 8 0
7 -10 6 0
-5 7 6 0
10 1 -5 0
4 10 3 0
-3 -10 8 0
6 -2 3 0
5 6 -8 0
3 -10 9 0
8 -10 1 0
-7 -10 -5 0
-7 1 -2 0
